parte1/ss2.1.lp
\* Problem: ss2 *\

Minimize
 deadline_not_accomplished: + y(1) + y(2) + y(3) + y(4) + y(5) + y(6)
 + y(7) + y(8) + y(9) + y(10)

Subject To
 loop(1,2): + x(1,2) + x(2,1) = 1
 loop(1,3): + x(1,3) + x(3,1) = 1
 loop(1,4): + x(1,4) + x(4,1) = 1
 loop(1,5): + x(1,5) + x(5,1) = 1
 loop(1,6): + x(1,6) + x(6,1) = 1
 loop(1,7): + x(1,7) + x(7,1) = 1
 loop(1,8): + x(1,8) + x(8,1) = 1
 loop(1,9): + x(1,9) + x(9,1) = 1
 loop(1,10): + x(1,10) + x(10,1) = 1
 loop(2,1): + x(1,2) + x(2,1) = 1
 loop(2,3): + x(2,3) + x(3,2) = 1
 loop(2,4): + x(2,4) + x(4,2) = 1
 loop(2,5): + x(2,5) + x(5,2) = 1
 loop(2,6): + x(2,6) + x(6,2) = 1
 loop(2,7): + x(2,7) + x(7,2) = 1
 loop(2,8): + x(2,8) + x(8,2) = 1
 loop(2,9): + x(2,9) + x(9,2) = 1
 loop(2,10): + x(2,10) + x(10,2) = 1
 loop(3,1): + x(1,3) + x(3,1) = 1
 loop(3,2): + x(2,3) + x(3,2) = 1
 loop(3,4): + x(3,4) + x(4,3) = 1
 loop(3,5): + x(3,5) + x(5,3) = 1
 loop(3,6): + x(3,6) + x(6,3) = 1
 loop(3,7): + x(3,7) + x(7,3) = 1
 loop(3,8): + x(3,8) + x(8,3) = 1
 loop(3,9): + x(3,9) + x(9,3) = 1
 loop(3,10): + x(3,10) + x(10,3) = 1
 loop(4,1): + x(1,4) + x(4,1) = 1
 loop(4,2): + x(2,4) + x(4,2) = 1
 loop(4,3): + x(3,4) + x(4,3) = 1
 loop(4,5): + x(4,5) + x(5,4) = 1
 loop(4,6): + x(4,6) + x(6,4) = 1
 loop(4,7): + x(4,7) + x(7,4) = 1
 loop(4,8): + x(4,8) + x(8,4) = 1
 loop(4,9): + x(4,9) + x(9,4) = 1
 loop(4,10): + x(4,10) + x(10,4) = 1
 loop(5,1): + x(1,5) + x(5,1) = 1
 loop(5,2): + x(2,5) + x(5,2) = 1
 loop(5,3): + x(3,5) + x(5,3) = 1
 loop(5,4): + x(4,5) + x(5,4) = 1
 loop(5,6): + x(5,6) + x(6,5) = 1
 loop(5,7): + x(5,7) + x(7,5) = 1
 loop(5,8): + x(5,8) + x(8,5) = 1
 loop(5,9): + x(5,9) + x(9,5) = 1
 loop(5,10): + x(5,10) + x(10,5) = 1
 loop(6,1): + x(1,6) + x(6,1) = 1
 loop(6,2): + x(2,6) + x(6,2) = 1
 loop(6,3): + x(3,6) + x(6,3) = 1
 loop(6,4): + x(4,6) + x(6,4) = 1
 loop(6,5): + x(5,6) + x(6,5) = 1
 loop(6,7): + x(6,7) + x(7,6) = 1
 loop(6,8): + x(6,8) + x(8,6) = 1
 loop(6,9): + x(6,9) + x(9,6) = 1
 loop(6,10): + x(6,10) + x(10,6) = 1
 loop(7,1): + x(1,7) + x(7,1) = 1
 loop(7,2): + x(2,7) + x(7,2) = 1
 loop(7,3): + x(3,7) + x(7,3) = 1
 loop(7,4): + x(4,7) + x(7,4) = 1
 loop(7,5): + x(5,7) + x(7,5) = 1
 loop(7,6): + x(6,7) + x(7,6) = 1
 loop(7,8): + x(7,8) + x(8,7) = 1
 loop(7,9): + x(7,9) + x(9,7) = 1
 loop(7,10): + x(7,10) + x(10,7) = 1
 loop(8,1): + x(1,8) + x(8,1) = 1
 loop(8,2): + x(2,8) + x(8,2) = 1
 loop(8,3): + x(3,8) + x(8,3) = 1
 loop(8,4): + x(4,8) + x(8,4) = 1
 loop(8,5): + x(5,8) + x(8,5) = 1
 loop(8,6): + x(6,8) + x(8,6) = 1
 loop(8,7): + x(7,8) + x(8,7) = 1
 loop(8,9): + x(8,9) + x(9,8) = 1
 loop(8,10): + x(8,10) + x(10,8) = 1
 loop(9,1): + x(1,9) + x(9,1) = 1
 loop(9,2): + x(2,9) + x(9,2) = 1
 loop(9,3): + x(3,9) + x(9,3) = 1
 loop(9,4): + x(4,9) + x(9,4) = 1
 loop(9,5): + x(5,9) + x(9,5) = 1
 loop(9,6): + x(6,9) + x(9,6) = 1
 loop(9,7): + x(7,9) + x(9,7) = 1
 loop(9,8): + x(8,9) + x(9,8) = 1
 loop(9,10): + x(9,10) + x(10,9) = 1
 loop(10,1): + x(1,10) + x(10,1) = 1
 loop(10,2): + x(2,10) + x(10,2) = 1
 loop(10,3): + x(3,10) + x(10,3) = 1
 loop(10,4): + x(4,10) + x(10,4) = 1
 loop(10,5): + x(5,10) + x(10,5) = 1
 loop(10,6): + x(6,10) + x(10,6) = 1
 loop(10,7): + x(7,10) + x(10,7) = 1
 loop(10,8): + x(8,10) + x(10,8) = 1
 loop(10,9): + x(9,10) + x(10,9) = 1
 order(4,6): + x(4,6) = 1
 order(2,9): + x(2,9) = 1
 order(6,9): + x(6,9) = 1
 order(3,6): + x(3,6) = 1
 order(8,10): + x(8,10) = 1
 order(3,10): + x(3,10) = 1
 order(5,7): + x(5,7) = 1
 order(2,8): + x(2,8) = 1
 order(1,8): + x(1,8) = 1
 order(7,9): + x(7,9) = 1
 order(4,8): + x(4,8) = 1
 order(7,8): + x(7,8) = 1
 order(4,10): + x(4,10) = 1
 order(5,9): + x(5,9) = 1
 order(4,7): + x(4,7) = 1
 order(5,6): + x(5,6) = 1
 order(9,10): + x(9,10) = 1
 order(6,8): + x(6,8) = 1
 order(4,5): + x(4,5) = 1
 order(2,5): + x(2,5) = 1
 order(3,7): + x(3,7) = 1
 order(2,3): + x(2,3) = 1
 order(4,9): + x(4,9) = 1
 order(2,10): + x(2,10) = 1
 order(6,7): + x(6,7) = 1
 order(6,10): + x(6,10) = 1
 order(1,5): + x(1,5) = 1
 order(2,6): + x(2,6) = 1
 ending(1): + x(2,1) + 3 x(3,1) + 8 x(4,1) + 3 x(5,1) + 7 x(6,1)
 + 8 x(7,1) + 10 x(8,1) + 3 x(9,1) + 3 x(10,1) - 48 y(1) <= 6
 ending(2): + x(1,2) + 3 x(3,2) + 8 x(4,2) + 3 x(5,2) + 7 x(6,2)
 + 8 x(7,2) + 10 x(8,2) + 3 x(9,2) + 3 x(10,2) - 48 y(2) <= 12
 ending(3): + x(1,3) + x(2,3) + 8 x(4,3) + 3 x(5,3) + 7 x(6,3)
 + 8 x(7,3) + 10 x(8,3) + 3 x(9,3) + 3 x(10,3) - 48 y(3) <= -0
 ending(4): + x(1,4) + x(2,4) + 3 x(3,4) + 3 x(5,4) + 7 x(6,4)
 + 8 x(7,4) + 10 x(8,4) + 3 x(9,4) + 3 x(10,4) - 48 y(4) <= 5
 ending(5): + x(1,5) + x(2,5) + 3 x(3,5) + 8 x(4,5) + 7 x(6,5)
 + 8 x(7,5) + 10 x(8,5) + 3 x(9,5) + 3 x(10,5) - 48 y(5) <= 15
 ending(6): + x(1,6) + x(2,6) + 3 x(3,6) + 8 x(4,6) + 3 x(5,6)
 + 8 x(7,6) + 10 x(8,6) + 3 x(9,6) + 3 x(10,6) - 48 y(6) <= 13
 ending(7): + x(1,7) + x(2,7) + 3 x(3,7) + 8 x(4,7) + 3 x(5,7)
 + 7 x(6,7) + 10 x(8,7) + 3 x(9,7) + 3 x(10,7) - 48 y(7) <= -0
 ending(8): + x(1,8) + x(2,8) + 3 x(3,8) + 8 x(4,8) + 3 x(5,8)
 + 7 x(6,8) + 8 x(7,8) + 3 x(9,8) + 3 x(10,8) - 48 y(8) <= 3
 ending(9): + x(1,9) + x(2,9) + 3 x(3,9) + 8 x(4,9) + 3 x(5,9)
 + 7 x(6,9) + 8 x(7,9) + 10 x(8,9) + 3 x(10,9) - 48 y(9) <= 16
 ending(10): + x(1,10) + x(2,10) + 3 x(3,10) + 8 x(4,10) + 3 x(5,10)
 + 7 x(6,10) + 8 x(7,10) + 10 x(8,10) + 3 x(9,10) - 48 y(10) <= 6

Bounds
 0 <= x(1,2) <= 1
 0 <= x(2,1) <= 1
 0 <= x(1,3) <= 1
 0 <= x(3,1) <= 1
 0 <= x(1,4) <= 1
 0 <= x(4,1) <= 1
 0 <= x(1,5) <= 1
 0 <= x(5,1) <= 1
 0 <= x(1,6) <= 1
 0 <= x(6,1) <= 1
 0 <= x(1,7) <= 1
 0 <= x(7,1) <= 1
 0 <= x(1,8) <= 1
 0 <= x(8,1) <= 1
 0 <= x(1,9) <= 1
 0 <= x(9,1) <= 1
 0 <= x(1,10) <= 1
 0 <= x(10,1) <= 1
 0 <= x(2,3) <= 1
 0 <= x(3,2) <= 1
 0 <= x(2,4) <= 1
 0 <= x(4,2) <= 1
 0 <= x(2,5) <= 1
 0 <= x(5,2) <= 1
 0 <= x(2,6) <= 1
 0 <= x(6,2) <= 1
 0 <= x(2,7) <= 1
 0 <= x(7,2) <= 1
 0 <= x(2,8) <= 1
 0 <= x(8,2) <= 1
 0 <= x(2,9) <= 1
 0 <= x(9,2) <= 1
 0 <= x(2,10) <= 1
 0 <= x(10,2) <= 1
 0 <= x(3,4) <= 1
 0 <= x(4,3) <= 1
 0 <= x(3,5) <= 1
 0 <= x(5,3) <= 1
 0 <= x(3,6) <= 1
 0 <= x(6,3) <= 1
 0 <= x(3,7) <= 1
 0 <= x(7,3) <= 1
 0 <= x(3,8) <= 1
 0 <= x(8,3) <= 1
 0 <= x(3,9) <= 1
 0 <= x(9,3) <= 1
 0 <= x(3,10) <= 1
 0 <= x(10,3) <= 1
 0 <= x(4,5) <= 1
 0 <= x(5,4) <= 1
 0 <= x(4,6) <= 1
 0 <= x(6,4) <= 1
 0 <= x(4,7) <= 1
 0 <= x(7,4) <= 1
 0 <= x(4,8) <= 1
 0 <= x(8,4) <= 1
 0 <= x(4,9) <= 1
 0 <= x(9,4) <= 1
 0 <= x(4,10) <= 1
 0 <= x(10,4) <= 1
 0 <= x(5,6) <= 1
 0 <= x(6,5) <= 1
 0 <= x(5,7) <= 1
 0 <= x(7,5) <= 1
 0 <= x(5,8) <= 1
 0 <= x(8,5) <= 1
 0 <= x(5,9) <= 1
 0 <= x(9,5) <= 1
 0 <= x(5,10) <= 1
 0 <= x(10,5) <= 1
 0 <= x(6,7) <= 1
 0 <= x(7,6) <= 1
 0 <= x(6,8) <= 1
 0 <= x(8,6) <= 1
 0 <= x(6,9) <= 1
 0 <= x(9,6) <= 1
 0 <= x(6,10) <= 1
 0 <= x(10,6) <= 1
 0 <= x(7,8) <= 1
 0 <= x(8,7) <= 1
 0 <= x(7,9) <= 1
 0 <= x(9,7) <= 1
 0 <= x(7,10) <= 1
 0 <= x(10,7) <= 1
 0 <= x(8,9) <= 1
 0 <= x(9,8) <= 1
 0 <= x(8,10) <= 1
 0 <= x(10,8) <= 1
 0 <= x(9,10) <= 1
 0 <= x(10,9) <= 1
 0 <= y(1) <= 1
 0 <= y(2) <= 1
 0 <= y(3) <= 1
 0 <= y(4) <= 1
 0 <= y(5) <= 1
 0 <= y(6) <= 1
 0 <= y(7) <= 1
 0 <= y(8) <= 1
 0 <= y(9) <= 1
 0 <= y(10) <= 1

Generals
 x(1,2)
 x(2,1)
 x(1,3)
 x(3,1)
 x(1,4)
 x(4,1)
 x(1,5)
 x(5,1)
 x(1,6)
 x(6,1)
 x(1,7)
 x(7,1)
 x(1,8)
 x(8,1)
 x(1,9)
 x(9,1)
 x(1,10)
 x(10,1)
 x(2,3)
 x(3,2)
 x(2,4)
 x(4,2)
 x(2,5)
 x(5,2)
 x(2,6)
 x(6,2)
 x(2,7)
 x(7,2)
 x(2,8)
 x(8,2)
 x(2,9)
 x(9,2)
 x(2,10)
 x(10,2)
 x(3,4)
 x(4,3)
 x(3,5)
 x(5,3)
 x(3,6)
 x(6,3)
 x(3,7)
 x(7,3)
 x(3,8)
 x(8,3)
 x(3,9)
 x(9,3)
 x(3,10)
 x(10,3)
 x(4,5)
 x(5,4)
 x(4,6)
 x(6,4)
 x(4,7)
 x(7,4)
 x(4,8)
 x(8,4)
 x(4,9)
 x(9,4)
 x(4,10)
 x(10,4)
 x(5,6)
 x(6,5)
 x(5,7)
 x(7,5)
 x(5,8)
 x(8,5)
 x(5,9)
 x(9,5)
 x(5,10)
 x(10,5)
 x(6,7)
 x(7,6)
 x(6,8)
 x(8,6)
 x(6,9)
 x(9,6)
 x(6,10)
 x(10,6)
 x(7,8)
 x(8,7)
 x(7,9)
 x(9,7)
 x(7,10)
 x(10,7)
 x(8,9)
 x(9,8)
 x(8,10)
 x(10,8)
 x(9,10)
 x(10,9)
 y(1)
 y(2)
 y(3)
 y(4)
 y(5)
 y(6)
 y(7)
 y(8)
 y(9)
 y(10)

End
