parte1/ss2.1.txt
Problem:    ss2
Rows:       129
Columns:    100 (100 integer, 100 binary)
Non-zeros:  318
Status:     INTEGER OPTIMAL
Objective:  deadline_not_accomplished = 6 (MINimum)

   No.   Row name        Activity     Lower bound   Upper bound
------ ------------    ------------- ------------- -------------
     1 loop[1,2]                   1             1             = 
     2 loop[1,3]                   1             1             = 
     3 loop[1,4]                   1             1             = 
     4 loop[1,5]                   1             1             = 
     5 loop[1,6]                   1             1             = 
     6 loop[1,7]                   1             1             = 
     7 loop[1,8]                   1             1             = 
     8 loop[1,9]                   1             1             = 
     9 loop[1,10]                  1             1             = 
    10 loop[2,1]                   1             1             = 
    11 loop[2,3]                   1             1             = 
    12 loop[2,4]                   1             1             = 
    13 loop[2,5]                   1             1             = 
    14 loop[2,6]                   1             1             = 
    15 loop[2,7]                   1             1             = 
    16 loop[2,8]                   1             1             = 
    17 loop[2,9]                   1             1             = 
    18 loop[2,10]                  1             1             = 
    19 loop[3,1]                   1             1             = 
    20 loop[3,2]                   1             1             = 
    21 loop[3,4]                   1             1             = 
    22 loop[3,5]                   1             1             = 
    23 loop[3,6]                   1             1             = 
    24 loop[3,7]                   1             1             = 
    25 loop[3,8]                   1             1             = 
    26 loop[3,9]                   1             1             = 
    27 loop[3,10]                  1             1             = 
    28 loop[4,1]                   1             1             = 
    29 loop[4,2]                   1             1             = 
    30 loop[4,3]                   1             1             = 
    31 loop[4,5]                   1             1             = 
    32 loop[4,6]                   1             1             = 
    33 loop[4,7]                   1             1             = 
    34 loop[4,8]                   1             1             = 
    35 loop[4,9]                   1             1             = 
    36 loop[4,10]                  1             1             = 
    37 loop[5,1]                   1             1             = 
    38 loop[5,2]                   1             1             = 
    39 loop[5,3]                   1             1             = 
    40 loop[5,4]                   1             1             = 
    41 loop[5,6]                   1             1             = 
    42 loop[5,7]                   1             1             = 
    43 loop[5,8]                   1             1             = 
    44 loop[5,9]                   1             1             = 
    45 loop[5,10]                  1             1             = 
    46 loop[6,1]                   1             1             = 
    47 loop[6,2]                   1             1             = 
    48 loop[6,3]                   1             1             = 
    49 loop[6,4]                   1             1             = 
    50 loop[6,5]                   1             1             = 
    51 loop[6,7]                   1             1             = 
    52 loop[6,8]                   1             1             = 
    53 loop[6,9]                   1             1             = 
    54 loop[6,10]                  1             1             = 
    55 loop[7,1]                   1             1             = 
    56 loop[7,2]                   1             1             = 
    57 loop[7,3]                   1             1             = 
    58 loop[7,4]                   1             1             = 
    59 loop[7,5]                   1             1             = 
    60 loop[7,6]                   1             1             = 
    61 loop[7,8]                   1             1             = 
    62 loop[7,9]                   1             1             = 
    63 loop[7,10]                  1             1             = 
    64 loop[8,1]                   1             1             = 
    65 loop[8,2]                   1             1             = 
    66 loop[8,3]                   1             1             = 
    67 loop[8,4]                   1             1             = 
    68 loop[8,5]                   1             1             = 
    69 loop[8,6]                   1             1             = 
    70 loop[8,7]                   1             1             = 
    71 loop[8,9]                   1             1             = 
    72 loop[8,10]                  1             1             = 
    73 loop[9,1]                   1             1             = 
    74 loop[9,2]                   1             1             = 
    75 loop[9,3]                   1             1             = 
    76 loop[9,4]                   1             1             = 
    77 loop[9,5]                   1             1             = 
    78 loop[9,6]                   1             1             = 
    79 loop[9,7]                   1             1             = 
    80 loop[9,8]                   1             1             = 
    81 loop[9,10]                  1             1             = 
    82 loop[10,1]                  1             1             = 
    83 loop[10,2]                  1             1             = 
    84 loop[10,3]                  1             1             = 
    85 loop[10,4]                  1             1             = 
    86 loop[10,5]                  1             1             = 
    87 loop[10,6]                  1             1             = 
    88 loop[10,7]                  1             1             = 
    89 loop[10,8]                  1             1             = 
    90 loop[10,9]                  1             1             = 
    91 order[4,6]                  1             1             = 
    92 order[2,9]                  1             1             = 
    93 order[6,9]                  1             1             = 
    94 order[3,6]                  1             1             = 
    95 order[8,10]                 1             1             = 
    96 order[3,10]                 1             1             = 
    97 order[5,7]                  1             1             = 
    98 order[2,8]                  1             1             = 
    99 order[1,8]                  1             1             = 
   100 order[7,9]                  1             1             = 
   101 order[4,8]                  1             1             = 
   102 order[7,8]                  1             1             = 
   103 order[4,10]                 1             1             = 
   104 order[5,9]                  1             1             = 
   105 order[4,7]                  1             1             = 
   106 order[5,6]                  1             1             = 
   107 order[9,10]                 1             1             = 
   108 order[6,8]                  1             1             = 
   109 order[4,5]                  1             1             = 
   110 order[2,5]                  1             1             = 
   111 order[3,7]                  1             1             = 
   112 order[2,3]                  1             1             = 
   113 order[4,9]                  1             1             = 
   114 order[2,10]                 1             1             = 
   115 order[6,7]                  1             1             = 
   116 order[6,10]                 1             1             = 
   117 order[1,5]                  1             1             = 
   118 order[2,6]                  1             1             = 
   119 ending[1]                   6                           6 
   120 ending[2]                   9                          12 
   121 ending[3]               -4983                          -0 
   122 ending[4]                   5                           5 
   123 ending[5]                  13                          15 
   124 ending[6]               -4984                          13 
   125 ending[7]               -4975                          -0 
   126 ending[8]               -4969                           3 
   127 ending[9]               -4972                          16 
   128 ending[10]              -4968                           6 
   129 deadline_not_accomplished
                                   6                             

   No. Column name       Activity     Lower bound   Upper bound
------ ------------    ------------- ------------- -------------
     1 x[1,2]       *              1             0             1 
     2 x[2,1]       *              0             0             1 
     3 x[1,3]       *              0             0             1 
     4 x[3,1]       *              1             0             1 
     5 x[1,4]       *              1             0             1 
     6 x[4,1]       *              0             0             1 
     7 x[1,5]       *              1             0             1 
     8 x[5,1]       *              0             0             1 
     9 x[1,6]       *              1             0             1 
    10 x[6,1]       *              0             0             1 
    11 x[1,7]       *              1             0             1 
    12 x[7,1]       *              0             0             1 
    13 x[1,8]       *              1             0             1 
    14 x[8,1]       *              0             0             1 
    15 x[1,9]       *              1             0             1 
    16 x[9,1]       *              0             0             1 
    17 x[1,10]      *              0             0             1 
    18 x[10,1]      *              1             0             1 
    19 x[2,3]       *              1             0             1 
    20 x[3,2]       *              0             0             1 
    21 x[2,4]       *              1             0             1 
    22 x[4,2]       *              0             0             1 
    23 x[2,5]       *              1             0             1 
    24 x[5,2]       *              0             0             1 
    25 x[2,6]       *              1             0             1 
    26 x[6,2]       *              0             0             1 
    27 x[2,7]       *              0             0             1 
    28 x[7,2]       *              1             0             1 
    29 x[2,8]       *              1             0             1 
    30 x[8,2]       *              0             0             1 
    31 x[2,9]       *              1             0             1 
    32 x[9,2]       *              0             0             1 
    33 x[2,10]      *              1             0             1 
    34 x[10,2]      *              0             0             1 
    35 x[3,4]       *              1             0             1 
    36 x[4,3]       *              0             0             1 
    37 x[3,5]       *              0             0             1 
    38 x[5,3]       *              1             0             1 
    39 x[3,6]       *              1             0             1 
    40 x[6,3]       *              0             0             1 
    41 x[3,7]       *              1             0             1 
    42 x[7,3]       *              0             0             1 
    43 x[3,8]       *              0             0             1 
    44 x[8,3]       *              1             0             1 
    45 x[3,9]       *              0             0             1 
    46 x[9,3]       *              1             0             1 
    47 x[3,10]      *              1             0             1 
    48 x[10,3]      *              0             0             1 
    49 x[4,5]       *              1             0             1 
    50 x[5,4]       *              0             0             1 
    51 x[4,6]       *              1             0             1 
    52 x[6,4]       *              0             0             1 
    53 x[4,7]       *              1             0             1 
    54 x[7,4]       *              0             0             1 
    55 x[4,8]       *              1             0             1 
    56 x[8,4]       *              0             0             1 
    57 x[4,9]       *              1             0             1 
    58 x[9,4]       *              0             0             1 
    59 x[4,10]      *              1             0             1 
    60 x[10,4]      *              0             0             1 
    61 x[5,6]       *              1             0             1 
    62 x[6,5]       *              0             0             1 
    63 x[5,7]       *              1             0             1 
    64 x[7,5]       *              0             0             1 
    65 x[5,8]       *              1             0             1 
    66 x[8,5]       *              0             0             1 
    67 x[5,9]       *              1             0             1 
    68 x[9,5]       *              0             0             1 
    69 x[5,10]      *              0             0             1 
    70 x[10,5]      *              1             0             1 
    71 x[6,7]       *              1             0             1 
    72 x[7,6]       *              0             0             1 
    73 x[6,8]       *              1             0             1 
    74 x[8,6]       *              0             0             1 
    75 x[6,9]       *              1             0             1 
    76 x[9,6]       *              0             0             1 
    77 x[6,10]      *              1             0             1 
    78 x[10,6]      *              0             0             1 
    79 x[7,8]       *              1             0             1 
    80 x[8,7]       *              0             0             1 
    81 x[7,9]       *              1             0             1 
    82 x[9,7]       *              0             0             1 
    83 x[7,10]      *              0             0             1 
    84 x[10,7]      *              1             0             1 
    85 x[8,9]       *              0             0             1 
    86 x[9,8]       *              1             0             1 
    87 x[8,10]      *              1             0             1 
    88 x[10,8]      *              0             0             1 
    89 x[9,10]      *              1             0             1 
    90 x[10,9]      *              0             0             1 
    91 y[1]         *              0             0             1 
    92 y[2]         *              0             0             1 
    93 y[3]         *              1             0             1 
    94 y[4]         *              0             0             1 
    95 y[5]         *              0             0             1 
    96 y[6]         *              1             0             1 
    97 y[7]         *              1             0             1 
    98 y[8]         *              1             0             1 
    99 y[9]         *              1             0             1 
   100 y[10]        *              1             0             1 

Integer feasibility conditions:

KKT.PE: max.abs.err = 0.00e+00 on row 0
        max.rel.err = 0.00e+00 on row 0
        High quality

KKT.PB: max.abs.err = 0.00e+00 on row 0
        max.rel.err = 0.00e+00 on row 0
        High quality

End of output
